# Solution for model Resale_Solver
# Objective value = 10
list[0] 0
list[1] 0
list[2] 0
list[3] 0
list[4] 0
list[5] 0
list[6] 0
list[7] 0
list[8] 0
list[9] 0
indicator[0] 0
indicator[1] 0
indicator[2] 0
indicator[3] 0
indicator[4] 0
indicator[5] 0
indicator[6] 0
indicator[7] 0
indicator[8] 0
indicator[9] 2e+09
